*MODEL INPUT FILE            A     1     1     1     1     0
*FILES              
MODEL          MZCER048
FILEX          SHIH2002.MZX                                                                                 
FILEA          SHIH2002.MZA                                                                                 
FILET          SHIH2002.MZT                                                                                 
SPECIES        MZCER048.SPE ///tmp/run_M0/Genotype/                                                         
ECOTYPE        MZCER048.ECO ///tmp/run_M0/Genotype/                                                         
CULTIVAR       MZCER048.CUL ///tmp/run_M0/Genotype/                                                         
PESTS          MZCER048.PST ///tmp/run_M0/Pest/                                                             
SOILS          SH.SOL       ///tmp/run_M0/Soil/                                                             
WEATHERW       SHIH2001.WTH ///tmp/run_M0/Weather/                                                          
OUTPUT         OVERVIEW
*SIMULATION CONTROL 
                   1     1     S 2020125  2150 GUO2025 2020 W2          
                   Y     Y     N     N     N     N     N     N     M
                   M     M     E     R     S     R     R     1     G     R     2     D     0
                   R     R     R     N     M
                   N     Y     Y     1     Y     N     Y     Y     N     N     Y     N     Y
!AUTOMATIC MANAGEM  
                   -99     -99   40.  100.   30.   40.    5.
                 30.   50.  100. GS000 IR001  10.0 1.000
                 30.   50.   25. FE001 GS000
                  0.     1   20.
                     0     -99  100.    0.
*EXP.DETAILS        
  1SHIH2002 MZ GUO2025 SHIHEZI 2020 W2                                     
*TREATMENTS         
  1 1 0 0 GUO2025 XINYU66 REAL     
*CULTIVARS          
   MZ XY0066 Xinyu 66        
*FIELDS             
   SHIH0001 SHIH2001   0.0    0. DR000    0. 100.0 00000 -99    100. SHIH000100-99.00 -99.0
     44.3240013123   85.9963989258   412.000               1.0  100.   1.0   0.0   -99   -99
*INITIAL CONDITIONS 
   MZ    2020125   100     0  1.00  1.00 -99.0     0  0.00  0.00    0.    0.
      5. 0.237  1.00  1.00
     15. 0.237  1.00  1.00
     20. 0.237  1.00  1.00
     30. 0.264  1.00  1.00
     40. 0.264  1.00  1.00
     50. 0.231  1.00  1.00
     60. 0.231  1.00  1.00
     70. 0.214  1.00  1.00
     80. 0.214  1.00  1.00
    100. 0.236  1.00  1.00
*PLANTING DETAILS   
   2020126     -99   8.9   8.9     S     R   45.    0.   4.0  -99.  -99. -99.0 -99.0   0.0
*IRRIGATION         
   1.000   30.   75.  -99. GS000 IR001   0.0
   2020126 IR001  52.5
   2020167 IR001  35.0
   2020175 IR001  35.0
   2020184 IR001  35.0
   2020191 IR001  78.7
   2020198 IR001  78.7
   2020205 IR001  78.7
   2020212 IR001  39.3
   2020223 IR001  39.3
   2020237 IR001  52.5
*FERTILIZERS        
   2020127 FE005 AP001    5.   13.    0.    0.    0.    0.   -99
   2020167 FE005 AP001    5.   13.    0.    0.    0.    0.   -99
   2020175 FE005 AP001    5.   13.    0.    0.    0.    0.   -99
   2020184 FE005 AP001    5.   13.    0.    0.    0.    0.   -99
   2020191 FE005 AP001    5.   13.    0.    0.    0.    0.   -99
   2020198 FE005 AP001    5.   13.    0.    0.    0.    0.   -99
   2020205 FE005 AP001    5.   13.    0.    0.    0.    0.   -99
   2020212 FE005 AP001    5.   13.    0.    0.    0.    0.   -99
   2020223 FE005 AP001    5.   13.    0.    0.    0.    0.   -99
   2020237 FE005 AP001    5.   13.    0.    0.    0.    0.   -99
*RESIDUES           
*CHEMICALS          
*TILLAGE            
*ENVIRONMENT        
*HARVEST            
*SOIL               
 SHIH000100  SHIHEZI     -99    100. Guo2025 measured 0-100 cm profile                 
 Shihezi     China        44.320 485.990 4 -99                                             
 -9     0.10   6.0  0.50   60.  1.00  1.00 IB00  IB00  IB00  -99  
    5.       0.122 0.237 0.457 1.000  -99.  1.51 -99.0  32.8  51.9   0.0  -9.0  7.00-99.00-99.00-99.00
   15.       0.122 0.237 0.457 1.000  -99.  1.51 -99.0  32.8  51.9   0.0  -9.0  7.00-99.00-99.00-99.00
   20.       0.122 0.237 0.457 1.000  -99.  1.51 -99.0  32.8  51.9   0.0  -9.0  7.00-99.00-99.00-99.00
   30.       0.136 0.264 0.425 0.850  -99.  1.54 -99.0  31.5  54.1   0.0  -9.0  7.00-99.00-99.00-99.00
   40.       0.136 0.264 0.425 0.850  -99.  1.54 -99.0  31.5  54.1   0.0  -9.0  7.00-99.00-99.00-99.00
   50.       0.120 0.231 0.371 0.700  -99.  1.59 -99.0  43.3  44.5   0.0  -9.0  7.00-99.00-99.00-99.00
   60.       0.120 0.231 0.371 0.700  -99.  1.59 -99.0  43.3  44.5   0.0  -9.0  7.00-99.00-99.00-99.00
   70.       0.113 0.214 0.346 0.550  -99.  1.63 -99.0  30.2  60.7   0.0  -9.0  7.00-99.00-99.00-99.00
   80.       0.113 0.214 0.346 0.550  -99.  1.63 -99.0  30.2  60.7   0.0  -9.0  7.00-99.00-99.00-99.00
  100.       0.105 0.236 0.385 0.400  -99.  1.61 -99.0  29.1  49.8   0.0  -9.0  7.00-99.00-99.00-99.00
                    
    5.-99.00 -99.0 -99.0 -99.0 -99.0 -99.0 -99.0 -99.0 -99.0 -99.0-99.00 -99.0 -99.0 -99.0 -99.0 -99.0  -99.  -99.
   15.-99.00 -99.0 -99.0 -99.0 -99.0 -99.0 -99.0 -99.0 -99.0 -99.0-99.00 -99.0 -99.0 -99.0 -99.0 -99.0  -99.  -99.
   20.-99.00 -99.0 -99.0 -99.0 -99.0 -99.0 -99.0 -99.0 -99.0 -99.0-99.00 -99.0 -99.0 -99.0 -99.0 -99.0  -99.  -99.
   30.-99.00 -99.0 -99.0 -99.0 -99.0 -99.0 -99.0 -99.0 -99.0 -99.0-99.00 -99.0 -99.0 -99.0 -99.0 -99.0  -99.  -99.
   40.-99.00 -99.0 -99.0 -99.0 -99.0 -99.0 -99.0 -99.0 -99.0 -99.0-99.00 -99.0 -99.0 -99.0 -99.0 -99.0  -99.  -99.
   50.-99.00 -99.0 -99.0 -99.0 -99.0 -99.0 -99.0 -99.0 -99.0 -99.0-99.00 -99.0 -99.0 -99.0 -99.0 -99.0  -99.  -99.
   60.-99.00 -99.0 -99.0 -99.0 -99.0 -99.0 -99.0 -99.0 -99.0 -99.0-99.00 -99.0 -99.0 -99.0 -99.0 -99.0  -99.  -99.
   70.-99.00 -99.0 -99.0 -99.0 -99.0 -99.0 -99.0 -99.0 -99.0 -99.0-99.00 -99.0 -99.0 -99.0 -99.0 -99.0  -99.  -99.
   80.-99.00 -99.0 -99.0 -99.0 -99.0 -99.0 -99.0 -99.0 -99.0 -99.0-99.00 -99.0 -99.0 -99.0 -99.0 -99.0  -99.  -99.
  100.-99.00 -99.0 -99.0 -99.0 -99.0 -99.0 -99.0 -99.0 -99.0 -99.0-99.00 -99.0 -99.0 -99.0 -99.0 -99.0  -99.  -99.
                    
    5.-99.00-99.00-99.00-99.00
   15.-99.00-99.00-99.00-99.00
   20.-99.00-99.00-99.00-99.00
   30.-99.00-99.00-99.00-99.00
   40.-99.00-99.00-99.00-99.00
   50.-99.00-99.00-99.00-99.00
   60.-99.00-99.00-99.00-99.00
   70.-99.00-99.00-99.00-99.00
   80.-99.00-99.00-99.00-99.00
  100.-99.00-99.00-99.00-99.00
*CULTIVAR           
XY0066 Xinyu 66         IB0001  104.7 1.824 957.2 671.0 15.82 42.97
